40
     4    75    87    90    29    42    96    27    92    70    52    38    81     9    47    87    17    64    52    41    45    90    14    71    40    97    60    51     5    50    94    59    71    62    98    74    97     5    34    80
     3     4     3     3     2    10     9     1     8     8     9     3     2     5     8    10     7     3     2     2     2     9    10     1     4     7     6     1     1     6     7     4     7     1     4     7     6     5    10     3
    88   167   228     0     0     0    56   205     0    66     0     0     0     0     0     0     0   117     0   146     0     0     0    77    69   185     0   105     0     0   159     0    52    66     0     0   113    20     0   179
